nBusiness = 46;
nMeetings = 184;
nTables = 21;
nTotalSlots = 10;
nMorningSlots = 10;

requested = [|1, 14, 3,
|1, 15, 3,
|1, 16, 3,
|1, 18, 3,
|1, 24, 3,
|1, 42, 3,
|2, 22, 3,
|2, 25, 3,
|2, 37, 3,
|2, 40, 3,
|3, 4, 3,
|3, 31, 3,
|3, 35, 3,
|3, 38, 3,
|5, 30, 3,
|5, 35, 3,
|5, 42, 3,
|6, 7, 3,
|6, 15, 3,
|6, 16, 3,
|6, 21, 3,
|6, 28, 3,
|6, 33, 3,
|7, 21, 3,
|7, 25, 3,
|7, 27, 3,
|7, 36, 3,
|7, 37, 3,
|7, 40, 3,
|7, 42, 3,
|8, 2, 3,
|8, 3, 3,
|8, 9, 3,
|8, 20, 3,
|8, 22, 3,
|8, 25, 3,
|8, 36, 3,
|8, 38, 3,
|8, 40, 3,
|9, 5, 3,
|9, 10, 3,
|10, 3, 3,
|10, 6, 3,
|10, 13, 3,
|10, 24, 3,
|10, 25, 3,
|10, 36, 3,
|10, 37, 3,
|12, 6, 3,
|12, 14, 3,
|12, 26, 3,
|12, 35, 3,
|12, 36, 3,
|12, 37, 3,
|12, 38, 3,
|12, 40, 3,
|13, 5, 3,
|13, 6, 3,
|13, 12, 3,
|13, 31, 3,
|13, 36, 3,
|13, 41, 3,
|13, 42, 3,
|14, 11, 3,
|14, 15, 3,
|14, 28, 3,
|14, 31, 3,
|14, 41, 3,
|15, 16, 3,
|15, 31, 3,
|15, 33, 3,
|17, 18, 3,
|17, 21, 3,
|17, 23, 3,
|17, 31, 3,
|17, 32, 3,
|17, 33, 3,
|17, 34, 3,
|17, 40, 3,
|17, 41, 3,
|17, 42, 3,
|19, 18, 3,
|19, 31, 3,
|19, 33, 3,
|19, 38, 3,
|20, 1, 3,
|20, 9, 3,
|20, 16, 3,
|20, 18, 3,
|20, 19, 3,
|20, 22, 3,
|20, 30, 3,
|21, 5, 3,
|21, 36, 3,
|21, 42, 3,
|22, 4, 3,
|22, 25, 3,
|22, 36, 3,
|22, 40, 3,
|22, 41, 3,
|22, 42, 3,
|25, 4, 3,
|26, 3, 3,
|26, 4, 3,
|26, 20, 3,
|26, 25, 3,
|26, 28, 3,
|26, 30, 3,
|26, 41, 3,
|27, 13, 3,
|27, 14, 3,
|27, 15, 3,
|27, 16, 3,
|27, 18, 3,
|27, 19, 3,
|28, 2, 3,
|28, 11, 3,
|28, 16, 3,
|29, 15, 3,
|29, 25, 3,
|29, 27, 3,
|29, 30, 3,
|29, 33, 3,
|29, 35, 3,
|29, 36, 3,
|29, 41, 3,
|29, 42, 3,
|30, 1, 3,
|30, 6, 3,
|30, 10, 3,
|30, 13, 3,
|30, 32, 3,
|30, 34, 3,
|31, 11, 3,
|32, 1, 3,
|32, 9, 3,
|32, 10, 3,
|32, 12, 3,
|32, 20, 3,
|32, 26, 3,
|32, 37, 3,
|32, 38, 3,
|33, 27, 3,
|33, 36, 3,
|34, 26, 3,
|34, 27, 3,
|34, 28, 3,
|34, 35, 3,
|34, 41, 3,
|34, 42, 3,
|37, 3, 3,
|37, 18, 3,
|37, 19, 3,
|40, 3, 3,
|40, 28, 3,
|40, 38, 3,
|41, 28, 3,
|43, 15, 3,
|43, 28, 3,
|43, 36, 3,
|43, 37, 3,
|43, 38, 3,
|43, 41, 3,
|44, 1, 3,
|44, 2, 3,
|44, 14, 3,
|44, 16, 3,
|44, 19, 3,
|44, 22, 3,
|44, 25, 3,
|44, 34, 3,
|44, 40, 3,
|44, 41, 3,
|45, 3, 3,
|45, 11, 3,
|45, 15, 3,
|45, 16, 3,
|45, 31, 3,
|45, 33, 3,
|46, 2, 3,
|46, 8, 3,
|46, 11, 3,
|46, 21, 3,
|46, 42, 3,
|];

nMeetingsBusiness = [10, 8, 10, 4, 6, 10, 8, 10, 5, 10, 5, 10, 10, 9, 10, 8, 10, 6, 8, 10, 7, 10, 1, 2, 9, 10, 10, 10, 9, 10, 8, 10, 8, 9, 5, 10, 9, 7, 0, 10, 10, 10, 6, 10, 6, 5, ];

fixat = [0,0,0,0,0,0,0,0,0,0,0,0,0,0,0,0,0,0,0,0,0,0,0,0,0,0,0,0,0,0,0,0,0,0,0,0,0,0,0,0,0,0,0,0,0,0,0,0,0,0,0,0,0,0,0,0,0,0,0,0,0,0,0,0,0,0,0,0,0,0,0,0,0,0,0,0,0,0,0,0,0,0,0,0,0,0,0,0,0,0,0,0,0,0,0,0,0,0,0,0,0,0,0,0,0,0,0,0,0,0,0,0,0,0,0,0,0,0,0,0,0,0,0,0,0,0,0,0,0,0,0,0,0,0,0,0,0,0,0,0,0,0,0,0,0,0,0,0,0,0,0,0,0,0,0,0,0,0,0,0,0,0,0,0,0,0,0,0,0,0,0,0,0,0,0,0,0,0,0,0,0,0,0,0,];

forbidden = [{0,},
{0,},
{0,},
{0,},
{0,},
{0,},
{0,},
{0,},
{0,},
{0,},
{0,},
{0,},
{0,},
{0,},
{0,},
{0,},
{0,},
{0,},
{0,},
{0,},
{0,},
{0,},
{0,},
{0,},
{0,},
{0,},
{0,},
{0,},
{0,},
{0,},
{0,},
{0,},
{0,},
{0,},
{0,},
{0,},
{0,},
{0,},
{0,},
{0,},
{0,},
{0,},
{0,},
{0,},
{0,},
{0,},
];